c User generated cnf file
p cnf 14 54
10 -7 4 0 
9 6 -12 0 
14 -6 1 0 
7 -13 14 0 
12 9 -8 0 
12 -12 2 0 
1 12 -7 0 
6 -14 4 0 
2 2 -14 0 
3 -8 12 0 
3 5 -4 0 
7 -3 12 0 
4 1 -3 0 
12 7 -1 0 
10 3 -1 0 
12 13 -10 0 
2 13 -6 0 
8 -12 14 0 
11 10 -10 0 
5 -8 14 0 
4 -14 3 0 
11 2 -1 0 
6 4 -9 0 
5 12 -9 0 
13 3 -9 0 
6 -2 11 0 
4 -13 4 0 
10 3 -4 0 
1 -8 14 0 
13 -8 14 0 
9 -9 1 0 
14 1 -9 0 
11 9 -3 0 
13 -4 11 0 
13 8 -6 0 
5 -5 12 0 
3 -2 2 0 
12 -4 1 0 
8 4 -10 0 
8 11 -8 0 
8 5 -4 0 
7 -7 10 0 
7 -5 12 0 
7 -7 12 0 
13 -7 2 0 
2 -9 2 0 
14 10 -3 0 
1 5 -6 0 
13 13 -10 0 
11 11 -14 0 
9 -12 2 0 
2 -13 8 0 
5 4 -5 0 
10 -8 9 0 
